(benchmark gametime
:status unknown
:logic QF_AUFBV
:extrafuns ((gtINDEX96  BitVec[32]))
:extrafuns ((gtFIELD__bitsForTID0__gtAGG____anonstruct_D_Work_4  Array[32:32]))
:extrafuns ((gtINDEX97  BitVec[32]))
:extrafuns ((gtAGG__rtDWork  BitVec[32]))
:extrafuns ((gtINDEX94  BitVec[32]))
:extrafuns ((gtINDEX95  BitVec[32]))
:extrafuns ((gtINDEX92  BitVec[32]))
:extrafuns ((gtINDEX93  BitVec[32]))
:extrafuns ((gtINDEX90  BitVec[32]))
:extrafuns ((gtINDEX91  BitVec[32]))
:extrafuns ((gtINDEX89  BitVec[32]))
:extrafuns ((gtINDEX88  BitVec[32]))
:extrafuns ((gtINDEX87  BitVec[32]))
:extrafuns ((gtINDEX86  BitVec[32]))
:extrafuns ((gtINDEX84  BitVec[32]))
:extrafuns ((gtINDEX85  BitVec[32]))
:extrafuns ((gtINDEX82  BitVec[32]))
:extrafuns ((gtINDEX83  BitVec[32]))
:extrafuns ((gtINDEX81  BitVec[32]))
:extrafuns ((gtINDEX79  BitVec[32]))
:extrafuns ((gtINDEX80  BitVec[32]))
:extrafuns ((gtINDEX78  BitVec[32]))
:extrafuns ((gtINDEX76  BitVec[32]))
:extrafuns ((gtINDEX77  BitVec[32]))
:extrafuns ((gtINDEX74  BitVec[32]))
:extrafuns ((gtINDEX75  BitVec[32]))
:extrafuns ((gtINDEX73  BitVec[32]))
:extrafuns ((gtINDEX71  BitVec[32]))
:extrafuns ((gtINDEX72  BitVec[32]))
:extrafuns ((gtINDEX69  BitVec[32]))
:extrafuns ((gtINDEX70  BitVec[32]))
:extrafuns ((gtINDEX67  BitVec[32]))
:extrafuns ((gtINDEX68  BitVec[32]))
:extrafuns ((gtINDEX66  BitVec[32]))
:extrafuns ((gtINDEX64  BitVec[32]))
:extrafuns ((gtINDEX65  BitVec[32]))
:extrafuns ((gtINDEX62  BitVec[32]))
:extrafuns ((gtINDEX63  BitVec[32]))
:extrafuns ((gtINDEX60  BitVec[32]))
:extrafuns ((gtINDEX61  BitVec[32]))
:extrafuns ((gtINDEX59  BitVec[32]))
:extrafuns ((gtINDEX57  BitVec[32]))
:extrafuns ((gtINDEX58  BitVec[32]))
:extrafuns ((gtINDEX56  BitVec[32]))
:extrafuns ((gtINDEX55  BitVec[32]))
:extrafuns ((gtINDEX53  BitVec[32]))
:extrafuns ((gtINDEX54  BitVec[32]))
:extrafuns ((gtINDEX51  BitVec[32]))
:extrafuns ((gtINDEX52  BitVec[32]))
:extrafuns ((gtINDEX49  BitVec[32]))
:extrafuns ((gtINDEX50  BitVec[32]))
:extrafuns ((gtINDEX48  BitVec[32]))
:extrafuns ((gtINDEX47  BitVec[32]))
:extrafuns ((gtINDEX46  BitVec[32]))
:extrafuns ((gtINDEX45  BitVec[32]))
:extrafuns ((gtINDEX44  BitVec[32]))
:extrafuns ((gtINDEX43  BitVec[32]))
:extrafuns ((gtINDEX42  BitVec[32]))
:extrafuns ((gtINDEX40  BitVec[32]))
:extrafuns ((gtINDEX41  BitVec[32]))
:extrafuns ((gtINDEX38  BitVec[32]))
:extrafuns ((gtINDEX39  BitVec[32]))
:extrafuns ((gtINDEX37  BitVec[32]))
:extrafuns ((gtINDEX35  BitVec[32]))
:extrafuns ((gtINDEX36  BitVec[32]))
:extrafuns ((gtINDEX33  BitVec[32]))
:extrafuns ((gtINDEX34  BitVec[32]))
:extrafuns ((gtINDEX32  BitVec[32]))
:extrafuns ((gtINDEX31  BitVec[32]))
:extrafuns ((gtINDEX29  BitVec[32]))
:extrafuns ((gtINDEX30  BitVec[32]))
:extrafuns ((gtINDEX27  BitVec[32]))
:extrafuns ((gtINDEX28  BitVec[32]))
:extrafuns ((gtINDEX25  BitVec[32]))
:extrafuns ((gtINDEX26  BitVec[32]))
:extrafuns ((gtINDEX24  BitVec[32]))
:extrafuns ((gtINDEX22  BitVec[32]))
:extrafuns ((gtINDEX23  BitVec[32]))
:extrafuns ((gtINDEX20  BitVec[32]))
:extrafuns ((gtINDEX21  BitVec[32]))
:extrafuns ((gtINDEX18  BitVec[32]))
:extrafuns ((gtINDEX19  BitVec[32]))
:extrafuns ((gtINDEX17  BitVec[32]))
:extrafuns ((gtINDEX15  BitVec[32]))
:extrafuns ((gtINDEX16  BitVec[32]))
:extrafuns ((gtINDEX13  BitVec[32]))
:extrafuns ((gtINDEX14  BitVec[32]))
:extrafuns ((gtINDEX11  BitVec[32]))
:extrafuns ((gtINDEX12  BitVec[32]))
:extrafuns ((gtINDEX10  BitVec[32]))
:extrafuns ((gtINDEX8  BitVec[32]))
:extrafuns ((gtINDEX9  BitVec[32]))
:extrafuns ((gtINDEX7  BitVec[32]))
:extrafuns ((gtINDEX6  BitVec[32]))
:extrafuns ((gtINDEX4  BitVec[32]))
:extrafuns ((gtINDEX5  BitVec[32]))
:extrafuns ((gtINDEX2  BitVec[32]))
:extrafuns ((gtINDEX3  BitVec[32]))
:extrafuns ((gtINDEX0  BitVec[32]))
:extrafuns ((gtINDEX1  BitVec[32]))
:extrafuns ((gtFIELD__is_Eng__gtAGG____anonstruct_bitsForTID0_5_1_  Array[32:1]))
:extrafuns ((gtFIELD__is_Eng__gtAGG____anonstruct_bitsForTID0_5_2_  Array[32:1]))
:extrafuns ((sf_previousEvent_1_  BitVec[32]))
:extrafuns ((sfEvent__2_  BitVec[32]))
:extrafuns ((gtFIELD__is_Eng__gtAGG____anonstruct_bitsForTID0_5  Array[32:1]))
:extrafuns ((gtFIELD__sent__gtAGG____anonstruct_D_Work_4_1_  Array[32:32]))
:extrafuns ((gtFIELD__sent__gtAGG____anonstruct_D_Work_4_2_  Array[32:32]))
:extrafuns ((gtFIELD__is_active_Eng__gtAGG____anonstruct_bitsForTID0_5  Array[32:1]))
:extrafuns ((gtFIELD__temporalCounter_i5__gtAGG____anonstruct_D_Work_4_1_  Array[32:32]))
:extrafuns ((gtFIELD__temporalCounter_i5__gtAGG____anonstruct_D_Work_4_2_  Array[32:32]))
:extrafuns ((gtFIELD__is_PURI__gtAGG____anonstruct_bitsForTID0_5_1_  Array[32:2]))
:extrafuns ((gtFIELD__is_PURI__gtAGG____anonstruct_bitsForTID0_5_2_  Array[32:2]))
:extrafuns ((gtFIELD__n_t_a__gtAGG____anonstruct_D_Work_4_1_  Array[32:32]))
:extrafuns ((gtFIELD__n_t_a__gtAGG____anonstruct_D_Work_4_2_  Array[32:32]))
:extrafuns ((sfEvent__1_  BitVec[32]))
:extrafuns ((gtFIELD__is_active_PURI__gtAGG____anonstruct_bitsForTID0_5  Array[32:1]))
:extrafuns ((gtFIELD__is_PVRP__gtAGG____anonstruct_bitsForTID0_5  Array[32:2]))
:extrafuns ((gtFIELD__is_active_PVRP__gtAGG____anonstruct_bitsForTID0_5  Array[32:1]))
:extrafuns ((gtFIELD__is_PPVARP__gtAGG____anonstruct_bitsForTID0_5  Array[32:2]))
:extrafuns ((gtFIELD__is_active_PPVARP__gtAGG____anonstruct_bitsForTID0_5  Array[32:1]))
:extrafuns ((gtFIELD__temporalCounter_i2__gtAGG____anonstruct_D_Work_4_1_  Array[32:32]))
:extrafuns ((gtFIELD__temporalCounter_i2__gtAGG____anonstruct_D_Work_4_2_  Array[32:32]))
:extrafuns ((gtFIELD__is_PLRI__gtAGG____anonstruct_bitsForTID0_5_1_  Array[32:2]))
:extrafuns ((gtFIELD__is_PLRI__gtAGG____anonstruct_bitsForTID0_5_2_  Array[32:2]))
:extrafuns ((gtFIELD__n_t_n__gtAGG____anonstruct_D_Work_4_1_  Array[32:32]))
:extrafuns ((gtFIELD__n_t_n__gtAGG____anonstruct_D_Work_4_2_  Array[32:32]))
:extrafuns ((gtFIELD__is_active_PLRI__gtAGG____anonstruct_bitsForTID0_5  Array[32:1]))
:extrafuns ((gtFIELD__is_active_PAVI__gtAGG____anonstruct_bitsForTID0_5  Array[32:1]))
:extrafuns ((sfEvent_  BitVec[32]))
:extrafuns ((gtFIELD__sent__gtAGG____anonstruct_D_Work_4  Array[32:32]))
:extrafuns ((gtFIELD__temporalCounter_i5__gtAGG____anonstruct_D_Work_4  Array[32:32]))
:extrafuns ((gtFIELD__is_PURI__gtAGG____anonstruct_bitsForTID0_5  Array[32:2]))
:extrafuns ((gtFIELD__URIex__gtAGG____anonstruct_bitsForTID0_5  Array[32:1]))
:extrafuns ((gtFIELD__URIex__gtAGG____anonstruct_bitsForTID0_5_1_  Array[32:1]))
:extrafuns ((gtFIELD__sh_rst__gtAGG____anonstruct_D_Work_4  Array[32:32]))
:extrafuns ((gtFIELD__sh_rst__gtAGG____anonstruct_D_Work_4_1_  Array[32:32]))
:extrafuns ((gtFIELD__n_t_a__gtAGG____anonstruct_D_Work_4  Array[32:32]))
:extrafuns ((gtFIELD__temporalCounter_i2__gtAGG____anonstruct_D_Work_4  Array[32:32]))
:extrafuns ((gtFIELD__is_PLRI__gtAGG____anonstruct_bitsForTID0_5  Array[32:2]))
:extrafuns ((gtFIELD__n_t_n__gtAGG____anonstruct_D_Work_4  Array[32:32]))
:extrapreds ((constraint168 ))
:extrapreds ((constraint167 ))
:extrapreds ((constraint166 ))
:extrapreds ((constraint165 ))
:extrapreds ((constraint164 ))
:extrapreds ((constraint163 ))
:extrapreds ((constraint162 ))
:extrapreds ((constraint161 ))
:extrapreds ((constraint160 ))
:extrapreds ((constraint159 ))
:extrapreds ((constraint158 ))
:extrapreds ((constraint157 ))
:extrapreds ((constraint156 ))
:extrapreds ((constraint155 ))
:extrapreds ((constraint154 ))
:extrapreds ((constraint153 ))
:extrapreds ((constraint152 ))
:extrapreds ((constraint151 ))
:extrapreds ((constraint150 ))
:extrapreds ((constraint149 ))
:extrapreds ((constraint148 ))
:extrapreds ((constraint147 ))
:extrapreds ((constraint146 ))
:extrapreds ((constraint145 ))
:extrapreds ((constraint144 ))
:extrapreds ((constraint143 ))
:extrapreds ((constraint142 ))
:extrapreds ((constraint141 ))
:extrapreds ((constraint140 ))
:extrapreds ((constraint139 ))
:extrapreds ((constraint138 ))
:extrapreds ((constraint137 ))
:extrapreds ((constraint136 ))
:extrapreds ((constraint135 ))
:extrapreds ((constraint134 ))
:extrapreds ((constraint133 ))
:extrapreds ((constraint132 ))
:extrapreds ((constraint131 ))
:extrapreds ((constraint130 ))
:extrapreds ((constraint129 ))
:extrapreds ((constraint128 ))
:extrapreds ((constraint127 ))
:extrapreds ((constraint126 ))
:extrapreds ((constraint125 ))
:extrapreds ((constraint124 ))
:extrapreds ((constraint123 ))
:extrapreds ((constraint122 ))
:extrapreds ((constraint121 ))
:extrapreds ((constraint120 ))
:extrapreds ((constraint119 ))
:extrapreds ((constraint118 ))
:extrapreds ((constraint117 ))
:extrapreds ((constraint116 ))
:extrapreds ((constraint115 ))
:extrapreds ((constraint114 ))
:extrapreds ((constraint113 ))
:extrapreds ((constraint112 ))
:extrapreds ((constraint111 ))
:extrapreds ((constraint110 ))
:extrapreds ((constraint109 ))
:extrapreds ((constraint108 ))
:extrapreds ((constraint107 ))
:extrapreds ((constraint106 ))
:extrapreds ((constraint105 ))
:extrapreds ((constraint104 ))
:extrapreds ((constraint103 ))
:extrapreds ((constraint102 ))
:extrapreds ((constraint101 ))
:extrapreds ((constraint100 ))
:extrapreds ((constraint99 ))
:extrapreds ((constraint98 ))
:extrapreds ((constraint97 ))
:extrapreds ((constraint96 ))
:extrapreds ((constraint95 ))
:extrapreds ((constraint94 ))
:extrapreds ((constraint93 ))
:extrapreds ((constraint92 ))
:extrapreds ((constraint91 ))
:extrapreds ((constraint90 ))
:extrapreds ((constraint89 ))
:extrapreds ((constraint88 ))
:extrapreds ((constraint87 ))
:extrapreds ((constraint86 ))
:extrapreds ((constraint85 ))
:extrapreds ((constraint84 ))
:extrapreds ((constraint83 ))
:extrapreds ((constraint82 ))
:extrapreds ((constraint81 ))
:extrapreds ((constraint80 ))
:extrapreds ((constraint79 ))
:extrapreds ((constraint78 ))
:extrapreds ((constraint77 ))
:extrapreds ((constraint76 ))
:extrapreds ((constraint75 ))
:extrapreds ((constraint74 ))
:extrapreds ((constraint73 ))
:extrapreds ((constraint72 ))
:extrapreds ((constraint71 ))
:extrapreds ((constraint70 ))
:extrapreds ((constraint69 ))
:extrapreds ((constraint68 ))
:extrapreds ((constraint67 ))
:extrapreds ((constraint66 ))
:extrapreds ((constraint65 ))
:extrapreds ((constraint64 ))
:extrapreds ((constraint63 ))
:extrapreds ((constraint62 ))
:extrapreds ((constraint61 ))
:extrapreds ((constraint60 ))
:extrapreds ((constraint59 ))
:extrapreds ((constraint58 ))
:extrapreds ((constraint57 ))
:extrapreds ((constraint56 ))
:extrapreds ((constraint55 ))
:extrapreds ((constraint54 ))
:extrapreds ((constraint53 ))
:extrapreds ((constraint52 ))
:extrapreds ((constraint51 ))
:extrapreds ((constraint50 ))
:extrapreds ((constraint49 ))
:extrapreds ((constraint48 ))
:extrapreds ((constraint47 ))
:extrapreds ((constraint46 ))
:extrapreds ((constraint45 ))
:extrapreds ((constraint44 ))
:extrapreds ((constraint43 ))
:extrapreds ((constraint42 ))
:extrapreds ((constraint41 ))
:extrapreds ((constraint40 ))
:extrapreds ((constraint39 ))
:extrapreds ((constraint38 ))
:extrapreds ((constraint37 ))
:extrapreds ((constraint36 ))
:extrapreds ((constraint35 ))
:extrapreds ((constraint34 ))
:extrapreds ((constraint33 ))
:extrapreds ((constraint32 ))
:extrapreds ((constraint31 ))
:extrapreds ((constraint30 ))
:extrapreds ((constraint29 ))
:extrapreds ((constraint28 ))
:extrapreds ((constraint27 ))
:extrapreds ((constraint26 ))
:extrapreds ((constraint25 ))
:extrapreds ((constraint24 ))
:extrapreds ((constraint23 ))
:extrapreds ((constraint22 ))
:extrapreds ((constraint21 ))
:extrapreds ((constraint20 ))
:extrapreds ((constraint19 ))
:extrapreds ((constraint18 ))
:extrapreds ((constraint17 ))
:extrapreds ((constraint16 ))
:extrapreds ((constraint15 ))
:extrapreds ((constraint14 ))
:extrapreds ((constraint13 ))
:extrapreds ((constraint12 ))
:extrapreds ((constraint11 ))
:extrapreds ((constraint10 ))
:extrapreds ((constraint9 ))
:extrapreds ((constraint8 ))
:extrapreds ((constraint7 ))
:extrapreds ((constraint6 ))
:extrapreds ((constraint5 ))
:extrapreds ((constraint4 ))
:extrapreds ((constraint3 ))
:extrapreds ((constraint2 ))
:extrapreds ((constraint1 ))
:extrapreds ((constraint0 ))
:formula
(flet ($x840 (and constraint0 constraint1 constraint2 constraint3 constraint4 constraint5 constraint6 constraint7 constraint8 constraint9 constraint10 constraint11 constraint12 constraint13 constraint14 constraint15 constraint16 constraint17 constraint18 constraint19 constraint20 constraint21 constraint22 constraint23 constraint24 constraint25 constraint26 constraint27 constraint28 constraint29 constraint30 constraint31 constraint32 constraint33 constraint34 constraint35 constraint36 constraint37 constraint38 constraint39 constraint40 constraint41 constraint42 constraint43 constraint44 constraint45 constraint46 constraint47 constraint48 constraint49 constraint50 constraint51 constraint52 constraint53 constraint54 constraint55 constraint56 constraint57 constraint58 constraint59 constraint60 constraint61 constraint62 constraint63 constraint64 constraint65 constraint66 constraint67 constraint68 constraint69 constraint70 constraint71 constraint72 constraint73 constraint74 constraint75 constraint76 constraint77 constraint78 constraint79 constraint80 constraint81 constraint82 constraint83 constraint84 constraint85 constraint86 constraint87 constraint88 constraint89 constraint90 constraint91 constraint92 constraint93 constraint94 constraint95 constraint96 constraint97 constraint98 constraint99 constraint100 constraint101 constraint102 constraint103 constraint104 constraint105 constraint106 constraint107 constraint108 constraint109 constraint110 constraint111 constraint112 constraint113 constraint114 constraint115 constraint116 constraint117 constraint118 constraint119 constraint120 constraint121 constraint122 constraint123 constraint124 constraint125 constraint126 constraint127 constraint128 constraint129 constraint130 constraint131 constraint132 constraint133 constraint134 constraint135 constraint136 constraint137 constraint138 constraint139 constraint140 constraint141 constraint142 constraint143 constraint144 constraint145 constraint146 constraint147 constraint148 constraint149 constraint150 constraint151 constraint152 constraint153 constraint154 constraint155 constraint156 constraint157 constraint158 constraint159 constraint160 constraint161 constraint162 constraint163 constraint164 constraint165 constraint166 constraint167 constraint168))
(flet ($x500 (= gtINDEX97 (select gtFIELD__bitsForTID0__gtAGG____anonstruct_D_Work_4 gtINDEX96)))
(flet ($x496 (= gtINDEX95 (select gtFIELD__bitsForTID0__gtAGG____anonstruct_D_Work_4 gtINDEX94)))
(flet ($x492 (= gtINDEX93 (select gtFIELD__bitsForTID0__gtAGG____anonstruct_D_Work_4 gtINDEX92)))
(flet ($x488 (= gtINDEX91 (select gtFIELD__bitsForTID0__gtAGG____anonstruct_D_Work_4 gtINDEX90)))
(flet ($x480 (= gtINDEX85 (select gtFIELD__bitsForTID0__gtAGG____anonstruct_D_Work_4 gtINDEX84)))
(flet ($x476 (= gtINDEX83 (select gtFIELD__bitsForTID0__gtAGG____anonstruct_D_Work_4 gtINDEX82)))
(flet ($x471 (= gtINDEX80 (select gtFIELD__bitsForTID0__gtAGG____anonstruct_D_Work_4 gtINDEX79)))
(flet ($x466 (= gtINDEX77 (select gtFIELD__bitsForTID0__gtAGG____anonstruct_D_Work_4 gtINDEX76)))
(flet ($x462 (= gtINDEX75 (select gtFIELD__bitsForTID0__gtAGG____anonstruct_D_Work_4 gtINDEX74)))
(flet ($x457 (= gtINDEX72 (select gtFIELD__bitsForTID0__gtAGG____anonstruct_D_Work_4 gtINDEX71)))
(flet ($x453 (= gtINDEX70 (select gtFIELD__bitsForTID0__gtAGG____anonstruct_D_Work_4 gtINDEX69)))
(flet ($x449 (= gtINDEX68 (select gtFIELD__bitsForTID0__gtAGG____anonstruct_D_Work_4 gtINDEX67)))
(flet ($x444 (= gtINDEX65 (select gtFIELD__bitsForTID0__gtAGG____anonstruct_D_Work_4 gtINDEX64)))
(flet ($x440 (= gtINDEX63 (select gtFIELD__bitsForTID0__gtAGG____anonstruct_D_Work_4 gtINDEX62)))
(flet ($x436 (= gtINDEX61 (select gtFIELD__bitsForTID0__gtAGG____anonstruct_D_Work_4 gtINDEX60)))
(flet ($x431 (= gtINDEX58 (select gtFIELD__bitsForTID0__gtAGG____anonstruct_D_Work_4 gtINDEX57)))
(flet ($x425 (= gtINDEX54 (select gtFIELD__bitsForTID0__gtAGG____anonstruct_D_Work_4 gtINDEX53)))
(flet ($x421 (= gtINDEX52 (select gtFIELD__bitsForTID0__gtAGG____anonstruct_D_Work_4 gtINDEX51)))
(flet ($x417 (= gtINDEX50 (select gtFIELD__bitsForTID0__gtAGG____anonstruct_D_Work_4 gtINDEX49)))
(flet ($x406 (= gtINDEX41 (select gtFIELD__bitsForTID0__gtAGG____anonstruct_D_Work_4 gtINDEX40)))
(flet ($x402 (= gtINDEX39 (select gtFIELD__bitsForTID0__gtAGG____anonstruct_D_Work_4 gtINDEX38)))
(flet ($x397 (= gtINDEX36 (select gtFIELD__bitsForTID0__gtAGG____anonstruct_D_Work_4 gtINDEX35)))
(flet ($x393 (= gtINDEX34 (select gtFIELD__bitsForTID0__gtAGG____anonstruct_D_Work_4 gtINDEX33)))
(flet ($x387 (= gtINDEX30 (select gtFIELD__bitsForTID0__gtAGG____anonstruct_D_Work_4 gtINDEX29)))
(flet ($x383 (= gtINDEX28 (select gtFIELD__bitsForTID0__gtAGG____anonstruct_D_Work_4 gtINDEX27)))
(flet ($x379 (= gtINDEX26 (select gtFIELD__bitsForTID0__gtAGG____anonstruct_D_Work_4 gtINDEX25)))
(flet ($x374 (= gtINDEX23 (select gtFIELD__bitsForTID0__gtAGG____anonstruct_D_Work_4 gtINDEX22)))
(flet ($x370 (= gtINDEX21 (select gtFIELD__bitsForTID0__gtAGG____anonstruct_D_Work_4 gtINDEX20)))
(flet ($x366 (= gtINDEX19 (select gtFIELD__bitsForTID0__gtAGG____anonstruct_D_Work_4 gtINDEX18)))
(flet ($x361 (= gtINDEX16 (select gtFIELD__bitsForTID0__gtAGG____anonstruct_D_Work_4 gtINDEX15)))
(flet ($x357 (= gtINDEX14 (select gtFIELD__bitsForTID0__gtAGG____anonstruct_D_Work_4 gtINDEX13)))
(flet ($x353 (= gtINDEX12 (select gtFIELD__bitsForTID0__gtAGG____anonstruct_D_Work_4 gtINDEX11)))
(flet ($x348 (= gtINDEX9 (select gtFIELD__bitsForTID0__gtAGG____anonstruct_D_Work_4 gtINDEX8)))
(flet ($x342 (= gtINDEX5 (select gtFIELD__bitsForTID0__gtAGG____anonstruct_D_Work_4 gtINDEX4)))
(flet ($x338 (= gtINDEX3 (select gtFIELD__bitsForTID0__gtAGG____anonstruct_D_Work_4 gtINDEX2)))
(flet ($x334 (= gtINDEX1 (select gtFIELD__bitsForTID0__gtAGG____anonstruct_D_Work_4 gtINDEX0)))
(let (?x318 (extract[0:0] bv1[32]))
(let (?x328 (store gtFIELD__is_Eng__gtAGG____anonstruct_bitsForTID0_5_1_ gtINDEX97 ?x318))
(flet ($x642 (iff constraint70 (= gtFIELD__is_Eng__gtAGG____anonstruct_bitsForTID0_5_2_ ?x328)))
(let (?x324 (select gtFIELD__is_Eng__gtAGG____anonstruct_bitsForTID0_5_1_ gtINDEX95))
(let (?x319 (store gtFIELD__is_Eng__gtAGG____anonstruct_bitsForTID0_5 gtINDEX93 ?x318))
(flet ($x636 (iff constraint67 (= gtFIELD__is_Eng__gtAGG____anonstruct_bitsForTID0_5_1_ ?x319)))
(let (?x315 (zero_extend[31] (select gtFIELD__is_Eng__gtAGG____anonstruct_bitsForTID0_5 gtINDEX91)))
(let (?x311 (store gtFIELD__sent__gtAGG____anonstruct_D_Work_4_1_ gtINDEX89 bv0[32]))
(flet ($x632 (iff constraint65 (= gtFIELD__sent__gtAGG____anonstruct_D_Work_4_2_ ?x311)))
(let (?x184 (bvmul bv4294967295[32] bv1[32]))
(flet ($x309 (= (select gtFIELD__sent__gtAGG____anonstruct_D_Work_4_1_ gtINDEX88) ?x184))
(flet ($x305 (= (select gtFIELD__sent__gtAGG____anonstruct_D_Work_4_1_ gtINDEX87) bv9[32]))
(flet ($x301 (= (select gtFIELD__sent__gtAGG____anonstruct_D_Work_4_1_ gtINDEX86) bv4[32]))
(let (?x297 (zero_extend[31] (select gtFIELD__is_Eng__gtAGG____anonstruct_bitsForTID0_5 gtINDEX85)))
(let (?x291 (select gtFIELD__is_active_Eng__gtAGG____anonstruct_bitsForTID0_5 gtINDEX83))
(let (?x288 (store gtFIELD__temporalCounter_i5__gtAGG____anonstruct_D_Work_4_1_ gtINDEX81 bv0[32]))
(flet ($x620 (iff constraint59 (= gtFIELD__temporalCounter_i5__gtAGG____anonstruct_D_Work_4_2_ ?x288)))
(let (?x90 (extract[1:0] bv1[32]))
(let (?x285 (store gtFIELD__is_PURI__gtAGG____anonstruct_bitsForTID0_5_1_ gtINDEX80 ?x90))
(flet ($x618 (iff constraint58 (= gtFIELD__is_PURI__gtAGG____anonstruct_bitsForTID0_5_2_ ?x285)))
(let (?x282 (store gtFIELD__n_t_a__gtAGG____anonstruct_D_Work_4_1_ gtINDEX78 bv0[32]))
(flet ($x616 (iff constraint57 (= gtFIELD__n_t_a__gtAGG____anonstruct_D_Work_4_2_ ?x282)))
(let (?x278 (select gtFIELD__is_PURI__gtAGG____anonstruct_bitsForTID0_5_1_ gtINDEX77))
(let (?x273 (select gtFIELD__is_active_PURI__gtAGG____anonstruct_bitsForTID0_5 gtINDEX75))
(flet ($x270 (= (select gtFIELD__sent__gtAGG____anonstruct_D_Work_4_1_ gtINDEX73) bv0[32]))
(let (?x265 (select gtFIELD__is_PVRP__gtAGG____anonstruct_bitsForTID0_5 gtINDEX72))
(let (?x260 (select gtFIELD__is_PVRP__gtAGG____anonstruct_bitsForTID0_5 gtINDEX70))
(let (?x255 (select gtFIELD__is_active_PVRP__gtAGG____anonstruct_bitsForTID0_5 gtINDEX68))
(flet ($x252 (= (select gtFIELD__sent__gtAGG____anonstruct_D_Work_4_1_ gtINDEX66) bv0[32]))
(let (?x247 (select gtFIELD__is_PPVARP__gtAGG____anonstruct_bitsForTID0_5 gtINDEX65))
(let (?x242 (select gtFIELD__is_PPVARP__gtAGG____anonstruct_bitsForTID0_5 gtINDEX63))
(let (?x237 (select gtFIELD__is_active_PPVARP__gtAGG____anonstruct_bitsForTID0_5 gtINDEX61))
(let (?x234 (store gtFIELD__temporalCounter_i2__gtAGG____anonstruct_D_Work_4_1_ gtINDEX59 bv0[32]))
(flet ($x592 (iff constraint45 (= gtFIELD__temporalCounter_i2__gtAGG____anonstruct_D_Work_4_2_ ?x234)))
(let (?x231 (store gtFIELD__is_PLRI__gtAGG____anonstruct_bitsForTID0_5_1_ gtINDEX58 ?x90))
(flet ($x590 (iff constraint44 (= gtFIELD__is_PLRI__gtAGG____anonstruct_bitsForTID0_5_2_ ?x231)))
(let (?x228 (store gtFIELD__n_t_n__gtAGG____anonstruct_D_Work_4_1_ gtINDEX56 bv0[32]))
(flet ($x588 (iff constraint43 (= gtFIELD__n_t_n__gtAGG____anonstruct_D_Work_4_2_ ?x228)))
(flet ($x225 (= (select gtFIELD__sent__gtAGG____anonstruct_D_Work_4_1_ gtINDEX55) bv0[32]))
(let (?x220 (select gtFIELD__is_PLRI__gtAGG____anonstruct_bitsForTID0_5_1_ gtINDEX54))
(let (?x215 (select gtFIELD__is_active_PLRI__gtAGG____anonstruct_bitsForTID0_5 gtINDEX52))
(let (?x209 (select gtFIELD__is_active_PAVI__gtAGG____anonstruct_bitsForTID0_5 gtINDEX50))
(flet ($x201 (= gtFIELD__sent__gtAGG____anonstruct_D_Work_4_1_ (store gtFIELD__sent__gtAGG____anonstruct_D_Work_4 gtINDEX48 ?x184)))
(flet ($x198 (= (select gtFIELD__sent__gtAGG____anonstruct_D_Work_4 gtINDEX47) bv3[32]))
(flet ($x193 (= (select gtFIELD__sent__gtAGG____anonstruct_D_Work_4 gtINDEX46) bv2[32]))
(flet ($x189 (= (select gtFIELD__sent__gtAGG____anonstruct_D_Work_4 gtINDEX45) bv1[32]))
(flet ($x185 (= (select gtFIELD__sent__gtAGG____anonstruct_D_Work_4 gtINDEX44) ?x184))
(flet ($x179 (= (select gtFIELD__sent__gtAGG____anonstruct_D_Work_4 gtINDEX43) bv9[32]))
(flet ($x174 (= (select gtFIELD__sent__gtAGG____anonstruct_D_Work_4 gtINDEX42) bv4[32]))
(let (?x170 (zero_extend[31] (select gtFIELD__is_Eng__gtAGG____anonstruct_bitsForTID0_5 gtINDEX41)))
(let (?x164 (select gtFIELD__is_active_Eng__gtAGG____anonstruct_bitsForTID0_5 gtINDEX39))
(let (?x161 (store gtFIELD__temporalCounter_i5__gtAGG____anonstruct_D_Work_4 gtINDEX37 bv0[32]))
(flet ($x552 (iff constraint25 (= gtFIELD__temporalCounter_i5__gtAGG____anonstruct_D_Work_4_1_ ?x161)))
(let (?x158 (store gtFIELD__is_PURI__gtAGG____anonstruct_bitsForTID0_5 gtINDEX36 ?x90))
(flet ($x550 (iff constraint24 (= gtFIELD__is_PURI__gtAGG____anonstruct_bitsForTID0_5_1_ ?x158)))
(let (?x155 (store gtFIELD__URIex__gtAGG____anonstruct_bitsForTID0_5 gtINDEX34 (extract[0:0] bv0[32])))
(flet ($x548 (iff constraint23 (= gtFIELD__URIex__gtAGG____anonstruct_bitsForTID0_5_1_ ?x155)))
(flet ($x152 (= gtFIELD__sh_rst__gtAGG____anonstruct_D_Work_4_1_ (store gtFIELD__sh_rst__gtAGG____anonstruct_D_Work_4 gtINDEX32 bv1[32])))
(flet ($x149 (= gtFIELD__n_t_a__gtAGG____anonstruct_D_Work_4_1_ (store gtFIELD__n_t_a__gtAGG____anonstruct_D_Work_4 gtINDEX31 bv0[32])))
(let (?x144 (select gtFIELD__is_PURI__gtAGG____anonstruct_bitsForTID0_5 gtINDEX30))
(let (?x139 (select gtFIELD__is_PURI__gtAGG____anonstruct_bitsForTID0_5 gtINDEX28))
(let (?x134 (select gtFIELD__is_active_PURI__gtAGG____anonstruct_bitsForTID0_5 gtINDEX26))
(flet ($x131 (= (select gtFIELD__sent__gtAGG____anonstruct_D_Work_4 gtINDEX24) bv0[32]))
(let (?x126 (select gtFIELD__is_PVRP__gtAGG____anonstruct_bitsForTID0_5 gtINDEX23))
(let (?x121 (select gtFIELD__is_PVRP__gtAGG____anonstruct_bitsForTID0_5 gtINDEX21))
(let (?x116 (select gtFIELD__is_active_PVRP__gtAGG____anonstruct_bitsForTID0_5 gtINDEX19))
(flet ($x113 (= (select gtFIELD__sent__gtAGG____anonstruct_D_Work_4 gtINDEX17) bv0[32]))
(let (?x107 (select gtFIELD__is_PPVARP__gtAGG____anonstruct_bitsForTID0_5 gtINDEX16))
(let (?x102 (select gtFIELD__is_PPVARP__gtAGG____anonstruct_bitsForTID0_5 gtINDEX14))
(let (?x97 (select gtFIELD__is_active_PPVARP__gtAGG____anonstruct_bitsForTID0_5 gtINDEX12))
(let (?x94 (store gtFIELD__temporalCounter_i2__gtAGG____anonstruct_D_Work_4 gtINDEX10 bv0[32]))
(flet ($x518 (iff constraint8 (= gtFIELD__temporalCounter_i2__gtAGG____anonstruct_D_Work_4_1_ ?x94)))
(let (?x91 (store gtFIELD__is_PLRI__gtAGG____anonstruct_bitsForTID0_5 gtINDEX9 ?x90))
(flet ($x516 (iff constraint7 (= gtFIELD__is_PLRI__gtAGG____anonstruct_bitsForTID0_5_1_ ?x91)))
(flet ($x88 (= gtFIELD__n_t_n__gtAGG____anonstruct_D_Work_4_1_ (store gtFIELD__n_t_n__gtAGG____anonstruct_D_Work_4 gtINDEX7 bv0[32])))
(flet ($x82 (= (select gtFIELD__sent__gtAGG____anonstruct_D_Work_4 gtINDEX6) bv0[32]))
(let (?x77 (zero_extend[30] (select gtFIELD__is_PLRI__gtAGG____anonstruct_bitsForTID0_5 gtINDEX5)))
(let (?x71 (select gtFIELD__is_active_PLRI__gtAGG____anonstruct_bitsForTID0_5 gtINDEX3))
(let (?x64 (select gtFIELD__is_active_PAVI__gtAGG____anonstruct_bitsForTID0_5 gtINDEX1))
(flet ($x839 (and (iff constraint0 (not (= sfEvent_ bv8[32]))) (iff constraint1 (not (not (= (zero_extend[31] ?x64) bv0[32])))) (iff constraint2 (not (= (zero_extend[31] ?x71) bv0[32]))) (iff constraint3 (= ?x77 bv1[32])) (iff constraint4 (not $x82)) (iff constraint5 (= sfEvent_ bv4[32])) (iff constraint6 $x88) $x516 $x518 (iff constraint9 (not (= (zero_extend[31] ?x97) bv0[32]))) (iff constraint10 (not (= (zero_extend[30] ?x102) bv1[32]))) (iff constraint11 (= (zero_extend[30] ?x107) bv2[32])) (iff constraint12 (not $x113)) (iff constraint13 (not (= (zero_extend[31] ?x116) bv0[32]))) (iff constraint14 (not (= (zero_extend[30] ?x121) bv1[32]))) (iff constraint15 (= (zero_extend[30] ?x126) bv2[32])) (iff constraint16 (not $x131)) (iff constraint17 (not (= (zero_extend[31] ?x134) bv0[32]))) (iff constraint18 (not (= (zero_extend[30] ?x139) bv1[32]))) (iff constraint19 (= (zero_extend[30] ?x144) bv2[32])) (iff constraint20 (= sfEvent_ bv4[32])) (iff constraint21 $x149) (iff constraint22 $x152) $x548 $x550 $x552 (iff constraint26 (not (= (zero_extend[31] ?x164) bv0[32]))) (iff constraint27 (= ?x170 bv1[32])) (iff constraint28 (not $x174)) (iff constraint29 (not $x179)) (iff constraint30 (not $x185)) (iff constraint31 (not $x189)) (iff constraint32 (not $x193)) (iff constraint33 $x198) (iff constraint34 $x201) (iff constraint35 (= sf_previousEvent_1_ sfEvent_)) (iff constraint36 (= sfEvent__1_ bv4[32])) (iff constraint37 (not (= sfEvent__1_ bv8[32]))) (iff constraint38 (not (not (= (zero_extend[31] ?x209) bv0[32])))) (iff constraint39 (not (= (zero_extend[31] ?x215) bv0[32]))) (iff constraint40 (= (zero_extend[30] ?x220) bv1[32])) (iff constraint41 (not $x225)) (iff constraint42 (= sfEvent__1_ bv4[32])) $x588 $x590 $x592 (iff constraint46 (not (= (zero_extend[31] ?x237) bv0[32]))) (iff constraint47 (not (= (zero_extend[30] ?x242) bv1[32]))) (iff constraint48 (= (zero_extend[30] ?x247) bv2[32])) (iff constraint49 (not $x252)) (iff constraint50 (not (= (zero_extend[31] ?x255) bv0[32]))) (iff constraint51 (not (= (zero_extend[30] ?x260) bv1[32]))) (iff constraint52 (= (zero_extend[30] ?x265) bv2[32])) (iff constraint53 (not $x270)) (iff constraint54 (not (= (zero_extend[31] ?x273) bv0[32]))) (iff constraint55 (= (zero_extend[30] ?x278) bv1[32])) (iff constraint56 (= sfEvent__1_ bv4[32])) $x616 $x618 $x620 (iff constraint60 (not (= (zero_extend[31] ?x291) bv0[32]))) (iff constraint61 (= ?x297 bv1[32])) (iff constraint62 (not $x301)) (iff constraint63 (not $x305)) (iff constraint64 $x309) $x632 (iff constraint66 (= ?x315 bv1[32])) $x636 (iff constraint68 (= sfEvent__2_ sf_previousEvent_1_)) (iff constraint69 (= (zero_extend[31] ?x324) bv1[32])) $x642 (iff constraint71 (= gtINDEX0 gtAGG__rtDWork)) (iff constraint72 $x334) (iff constraint73 (= gtINDEX2 gtAGG__rtDWork)) (iff constraint74 $x338) (iff constraint75 (= gtINDEX4 gtAGG__rtDWork)) (iff constraint76 $x342) (iff constraint77 (= gtINDEX6 gtAGG__rtDWork)) (iff constraint78 (= gtINDEX7 gtAGG__rtDWork)) (iff constraint79 (= gtINDEX8 gtAGG__rtDWork)) (iff constraint80 $x348) (iff constraint81 (= gtINDEX10 gtAGG__rtDWork)) (iff constraint82 (= gtINDEX11 gtAGG__rtDWork)) (iff constraint83 $x353) (iff constraint84 (= gtINDEX13 gtAGG__rtDWork)) (iff constraint85 $x357) (iff constraint86 (= gtINDEX15 gtAGG__rtDWork)) (iff constraint87 $x361) (iff constraint88 (= gtINDEX17 gtAGG__rtDWork)) (iff constraint89 (= gtINDEX18 gtAGG__rtDWork)) (iff constraint90 $x366) (iff constraint91 (= gtINDEX20 gtAGG__rtDWork)) (iff constraint92 $x370) (iff constraint93 (= gtINDEX22 gtAGG__rtDWork)) (iff constraint94 $x374) (iff constraint95 (= gtINDEX24 gtAGG__rtDWork)) (iff constraint96 (= gtINDEX25 gtAGG__rtDWork)) (iff constraint97 $x379) (iff constraint98 (= gtINDEX27 gtAGG__rtDWork)) (iff constraint99 $x383) (iff constraint100 (= gtINDEX29 gtAGG__rtDWork)) (iff constraint101 $x387) (iff constraint102 (= gtINDEX31 gtAGG__rtDWork)) (iff constraint103 (= gtINDEX32 gtAGG__rtDWork)) (iff constraint104 (= gtINDEX33 gtAGG__rtDWork)) (iff constraint105 $x393) (iff constraint106 (= gtINDEX35 gtAGG__rtDWork)) (iff constraint107 $x397) (iff constraint108 (= gtINDEX37 gtAGG__rtDWork)) (iff constraint109 (= gtINDEX38 gtAGG__rtDWork)) (iff constraint110 $x402) (iff constraint111 (= gtINDEX40 gtAGG__rtDWork)) (iff constraint112 $x406) (iff constraint113 (= gtINDEX42 gtAGG__rtDWork)) (iff constraint114 (= gtINDEX43 gtAGG__rtDWork)) (iff constraint115 (= gtINDEX44 gtAGG__rtDWork)) (iff constraint116 (= gtINDEX45 gtAGG__rtDWork)) (iff constraint117 (= gtINDEX46 gtAGG__rtDWork)) (iff constraint118 (= gtINDEX47 gtAGG__rtDWork)) (iff constraint119 (= gtINDEX48 gtAGG__rtDWork)) (iff constraint120 (= gtINDEX49 gtAGG__rtDWork)) (iff constraint121 $x417) (iff constraint122 (= gtINDEX51 gtAGG__rtDWork)) (iff constraint123 $x421) (iff constraint124 (= gtINDEX53 gtAGG__rtDWork)) (iff constraint125 $x425) (iff constraint126 (= gtINDEX55 gtAGG__rtDWork)) (iff constraint127 (= gtINDEX56 gtAGG__rtDWork)) (iff constraint128 (= gtINDEX57 gtAGG__rtDWork)) (iff constraint129 $x431) (iff constraint130 (= gtINDEX59 gtAGG__rtDWork)) (iff constraint131 (= gtINDEX60 gtAGG__rtDWork)) (iff constraint132 $x436) (iff constraint133 (= gtINDEX62 gtAGG__rtDWork)) (iff constraint134 $x440) (iff constraint135 (= gtINDEX64 gtAGG__rtDWork)) (iff constraint136 $x444) (iff constraint137 (= gtINDEX66 gtAGG__rtDWork)) (iff constraint138 (= gtINDEX67 gtAGG__rtDWork)) (iff constraint139 $x449) (iff constraint140 (= gtINDEX69 gtAGG__rtDWork)) (iff constraint141 $x453) (iff constraint142 (= gtINDEX71 gtAGG__rtDWork)) (iff constraint143 $x457) (iff constraint144 (= gtINDEX73 gtAGG__rtDWork)) (iff constraint145 (= gtINDEX74 gtAGG__rtDWork)) (iff constraint146 $x462) (iff constraint147 (= gtINDEX76 gtAGG__rtDWork)) (iff constraint148 $x466) (iff constraint149 (= gtINDEX78 gtAGG__rtDWork)) (iff constraint150 (= gtINDEX79 gtAGG__rtDWork)) (iff constraint151 $x471) (iff constraint152 (= gtINDEX81 gtAGG__rtDWork)) (iff constraint153 (= gtINDEX82 gtAGG__rtDWork)) (iff constraint154 $x476) (iff constraint155 (= gtINDEX84 gtAGG__rtDWork)) (iff constraint156 $x480) (iff constraint157 (= gtINDEX86 gtAGG__rtDWork)) (iff constraint158 (= gtINDEX87 gtAGG__rtDWork)) (iff constraint159 (= gtINDEX88 gtAGG__rtDWork)) (iff constraint160 (= gtINDEX89 gtAGG__rtDWork)) (iff constraint161 (= gtINDEX90 gtAGG__rtDWork)) (iff constraint162 $x488) (iff constraint163 (= gtINDEX92 gtAGG__rtDWork)) (iff constraint164 $x492) (iff constraint165 (= gtINDEX94 gtAGG__rtDWork)) (iff constraint166 $x496) (iff constraint167 (= gtINDEX96 gtAGG__rtDWork)) (iff constraint168 $x500)))
(and $x839 $x840))))))))))))))))))))))))))))))))))))))))))))))))))))))))))))))))))))))))))))))))))))))))))))))))))))))))))))))))))))))
)
